c 3 - XORSAT
p cnf 20 80
1 3 4 0
-1 -3 4 0
-1 3 -4 0
1 -3 -4 0
17 18 19 0
-17 -18 19 0
-17 18 -19 0
17 -18 -19 0
-10 -12 -19 0
-10 12 19 0
10 -12 19 0
10 12 -19 0
3 7 15 0
-3 -7 15 0
-3 7 -15 0
3 -7 -15 0
-2 -5 -6 0
-2 5 6 0
2 -5 6 0
2 5 -6 0
2 15 20 0
-2 -15 20 0
-2 15 -20 0
2 -15 -20 0
-8 -9 -13 0
-8 9 13 0
8 -9 13 0
8 9 -13 0
-12 -15 -18 0
-12 15 18 0
12 -15 18 0
12 15 -18 0
-3 -11 -16 0
-3 11 16 0
3 -11 16 0
3 11 -16 0
14 19 20 0
-14 -19 20 0
-14 19 -20 0
14 -19 -20 0
-1 -7 -10 0
-1 7 10 0
1 -7 10 0
1 7 -10 0
8 12 13 0
-8 -12 13 0
-8 12 -13 0
8 -12 -13 0
17 18 20 0
-17 -18 20 0
-17 18 -20 0
17 -18 -20 0
6 7 5 0
-6 -7 5 0
-6 7 -5 0
6 -7 -5 0
8 11 16 0
-8 -11 16 0
-8 11 -16 0
8 -11 -16 0
-4 -10 -14 0
-4 10 14 0
4 -10 14 0
4 10 -14 0
-4 -6 -9 0
-4 6 9 0
4 -6 9 0
4 6 -9 0
-2 -9 -14 0
-2 9 14 0
2 -9 14 0
2 9 -14 0
1 5 17 0
-1 -5 17 0
-1 5 -17 0
1 -5 -17 0
-11 -13 -16 0
-11 13 16 0
11 -13 16 0
11 13 -16 0
